(set-info :smt-lib-version 2.6)
(set-logic QF_S)
(set-info :source |
Generated by: Murphy Berzish, Mitja Kulczynski, Federico Mora, Florin Manea, Joel Day, Dirk Nowotka, Vijay Ganesh, Zhengyang Lu
Generated on: 2020-10-01
Description: Translated from a collection of real-world regex queries, AutomataArk, collected by Loris D’Antoni and Fang Wang: https://github.com/lorisdanto/automatark
Application: Evaluate solvers on real-world regex queries
Target solver: Z3str3RE, CVC4, OSTRICH, Z3seq, Z3str3, Z3-Trau
Publications: Berzish, M., Kulczynski, M., Mora, F., Manea, F., Day, J. D., Nowotka, D., & Ganesh, V. (2021, July). An SMT solver for regular expressions and linear arithmetic over string length. In CAV 2021.
|)
(set-info :license "https://creativecommons.org/licenses/by/4.0/")
(set-info :category "industrial")
(set-info :status sat)

(declare-const X String)
(assert (not (str.in_re X (re.++ (str.to_re "/HTTP/1") re.allchar (re.union (str.to_re "0") (str.to_re "1")) (str.to_re "\u{d}\u{a}User-Agent: ") (re.+ (re.range " " "~")) (str.to_re "\u{d}\u{a}Host: ") (re.+ (re.union (re.range "a" "z") (re.range "0" "9") (str.to_re "-") (str.to_re "."))) (str.to_re ".info\u{d}\u{a}/\u{a}")))))
(assert (str.in_re X (re.++ (str.to_re "}{Trojan:") (re.+ (re.union (re.range "0" "9") (re.range "A" "Z") (re.range "a" "z") (str.to_re "_"))) (str.to_re "Host:") (re.union (str.to_re " ") (str.to_re "\u{9}") (str.to_re "\u{a}") (str.to_re "\u{c}") (str.to_re "\u{d}")) (re.range "0" "9") (str.to_re ".l\u{a}"))))
(assert (not (str.in_re X (re.++ (str.to_re "/bar_pl/chk_bar.fcgi") (re.+ (re.union (str.to_re " ") (str.to_re "\u{9}") (str.to_re "\u{a}") (str.to_re "\u{c}") (str.to_re "\u{d}"))) (str.to_re "adblock.linkz.com\u{a}")))))
(assert (not (str.in_re X (re.++ (re.union (re.opt (re.range "0" "9")) (re.++ (re.* (re.++ (re.opt (re.union (str.to_re "-") (str.to_re "+"))) (re.+ (re.range "0" "9")) (re.opt (str.to_re ".")) (re.* (re.range "0" "9")) (str.to_re ",") (re.opt (str.to_re " ")))) (re.opt (re.union (str.to_re "-") (str.to_re "+"))) (re.+ (re.range "0" "9")) (re.opt (str.to_re ".")) (re.* (re.range "0" "9"))) (re.++ (re.* (re.++ (re.opt (re.union (str.to_re "-") (str.to_re "+"))) (re.* (re.range "0" "9")) (re.opt (str.to_re ".")) (re.+ (re.range "0" "9")) (str.to_re ",") (re.opt (str.to_re " ")))) (re.opt (re.union (str.to_re "-") (str.to_re "+"))) (re.* (re.range "0" "9")) (re.opt (str.to_re ".")) (re.+ (re.range "0" "9"))) (re.++ (re.* (re.++ (re.opt (re.union (str.to_re "-") (str.to_re "+"))) (re.+ (re.range "0" "9")) (re.opt (str.to_re ".")) (re.* (re.range "0" "9")) (str.to_re ",") (re.opt (str.to_re " ")))) (re.opt (re.union (str.to_re "-") (str.to_re "+"))) (re.* (re.range "0" "9")) (re.opt (str.to_re ".")) (re.+ (re.range "0" "9"))) (re.++ (re.* (re.++ (re.opt (re.union (str.to_re "-") (str.to_re "+"))) (re.* (re.range "0" "9")) (re.opt (str.to_re ".")) (re.+ (re.range "0" "9")) (str.to_re ",") (re.opt (str.to_re " ")))) (re.opt (re.union (str.to_re "-") (str.to_re "+"))) (re.+ (re.range "0" "9")) (re.opt (str.to_re ".")) (re.* (re.range "0" "9"))) (re.++ (re.opt (re.union (str.to_re "-") (str.to_re "+"))) (re.+ (re.range "0" "9")) (re.opt (str.to_re ".")) (re.* (re.range "0" "9"))) (re.++ (re.opt (re.union (str.to_re "-") (str.to_re "+"))) (re.* (re.range "0" "9")) (re.opt (str.to_re ".")) (re.+ (re.range "0" "9")))) (str.to_re "\u{a}")))))
(assert (not (str.in_re X (re.++ (re.+ (re.union (re.range "A" "Z") (re.range "a" "z") (str.to_re "_") (str.to_re ".") (re.range "0" "9") (str.to_re "-"))) ((_ re.loop 1 1) (str.to_re "@")) (re.+ (re.range "a" "z")) (re.+ (re.++ ((_ re.loop 1 1) (str.to_re ".")) ((_ re.loop 2 4) (re.range "a" "z")))) (str.to_re "\u{a}")))))
(check-sat)

(exit)
